Li5P5F29H  (P1) ~ surface_Li4PF4_Exposed rpt.cif  (VASP)
    1.0
            5.17943000 0.00000000 0.00000000 
            0.00000000 5.17943000 0.00000000 
            0.00000000 0.00000000 32.58680000 
  Li F P H
  5 29 5 1
Direct
        0.00000000 0.00000000 0.27586979      	#	1      	Li1
        0.00000000 0.00000000 0.72413021      	#	2      	Li2
        0.00000000 0.00000000 0.50000000      	#	3      	Li3
        0.50000000 0.50000000 0.38553989      	#	4      	Li4
        0.50000000 0.50000000 0.61446011      	#	5      	Li5
        0.77675000 0.77675000 0.38649990      	#	6      	F1
        0.77675000 0.22325000 0.61350010      	#	7      	F2
        0.22325000 0.77675000 0.61350010      	#	8      	F3
        0.22325000 0.22325000 0.38649990      	#	9      	F4
        0.22325000 0.22325000 0.61350010      	#	10     	F5
        0.22325000 0.77675000 0.38649990      	#	11     	F6
        0.77675000 0.22325000 0.38649990      	#	12     	F7
        0.77675000 0.77675000 0.61350010      	#	13     	F8
        0.00000000 0.00000000 0.43658994      	#	14     	F9
        0.00000000 0.00000000 0.56341006      	#	15     	F10
        0.00000000 0.00000000 0.66339015      	#	16     	F11
        0.00000000 0.00000000 0.33660985      	#	17     	F12
        0.26755000 0.26755000 0.26702979      	#	18     	F13
        0.26755000 0.73245000 0.73297021      	#	19     	F14
        0.73245000 0.26755000 0.73297021      	#	20     	F15
        0.73245000 0.73245000 0.26702979      	#	21     	F16
        0.73245000 0.73245000 0.73297021      	#	22     	F17
        0.73245000 0.26755000 0.26702979      	#	23     	F18
        0.26755000 0.73245000 0.26702979      	#	24     	F19
        0.26755000 0.26755000 0.73297021      	#	25     	F20
        0.27690000 0.27690000 0.50000000      	#	26     	F21
        0.27690000 0.72310000 0.50000000      	#	27     	F22
        0.72310000 0.27690000 0.50000000      	#	28     	F23
        0.72310000 0.72310000 0.50000000      	#	29     	F24
        0.50000000 0.50000000 0.31796983      	#	30     	F25
        0.50000000 0.50000000 0.68203017      	#	31     	F26
        0.50000000 0.50000000 0.55009005      	#	32     	F27
        0.50000000 0.50000000 0.44990995      	#	33     	F28
        0.49003124 0.49164268 0.78306463      	#	34     	F29
        0.00000000 0.00000000 0.38657990      	#	35     	P1
        0.00000000 0.00000000 0.61342010      	#	36     	P2
        0.50000000 0.50000000 0.26821979      	#	37     	P3
        0.50000000 0.50000000 0.73178021      	#	38     	P4
        0.50000000 0.50000000 0.50000000      	#	39     	P5
        0.49652185 0.48919910 0.81181464      	#	40     	H

