Li5P5F27H  (P1) ~ surface Li2P4F4 Terminated.cif  (VASP)
    1.0
            5.33832000 0.00000000 0.00000000 
            0.00000000 7.18886000 0.00000000 
            0.00000000 0.00000000 20.81247000 
  Li F P H
  5 27 5 1
Direct
        0.00000000 0.50000000 0.09543000      	#	1      	Li1
        0.00000000 0.50000000 0.56633000      	#	2      	Li2
        0.50000000 0.00000000 0.19744000      	#	3      	Li3
        0.00000000 0.50000000 0.33088000      	#	4      	Li4
        0.50000000 0.00000000 0.46432000      	#	5      	Li5
        0.78379000 0.00000000 0.38650000      	#	6      	F1
        0.21621000 0.00000000 0.38650000      	#	7      	F2
        0.22858000 0.00000000 0.54166000      	#	8      	F3
        0.77142000 0.00000000 0.54166000      	#	9      	F4
        0.00000000 0.22766000 0.33088000      	#	10     	F5
        0.00000000 0.77234000 0.33088000      	#	11     	F6
        0.28550000 0.50000000 0.50990000      	#	12     	F7
        0.71450000 0.50000000 0.50990000      	#	13     	F8
        0.71450000 0.50000000 0.15186000      	#	14     	F9
        0.28550000 0.50000000 0.15186000      	#	15     	F10
        0.50000000 0.72763000 0.45455000      	#	16     	F11
        0.50000000 0.27237000 0.45455000      	#	17     	F12
        0.77142000 0.00000000 0.12010000      	#	18     	F13
        0.22858000 0.00000000 0.12010000      	#	19     	F14
        0.21621000 0.00000000 0.27526000      	#	20     	F15
        0.78379000 0.00000000 0.27526000      	#	21     	F16
        0.00000000 0.25286000 0.07220000      	#	22     	F17
        0.00000000 0.74714000 0.07220000      	#	23     	F18
        0.00000000 0.25286000 0.58956000      	#	24     	F19
        0.00000000 0.74714000 0.58956000      	#	25     	F20
        0.28338000 0.50000000 0.26253000      	#	26     	F21
        0.71662000 0.50000000 0.26253000      	#	27     	F22
        0.71662000 0.50000000 0.39923000      	#	28     	F23
        0.28338000 0.50000000 0.39923000      	#	29     	F24
        0.50000000 0.72763000 0.20722000      	#	30     	F25
        0.50000000 0.27237000 0.20722000      	#	31     	F26
        0.49686959 0.51553641 0.54083888      	#	32     	F27
        0.00000000 0.00000000 0.33088000      	#	33     	P1
        0.50000000 0.50000000 0.45420000      	#	34     	P2
        0.00000000 0.00000000 0.06703000      	#	35     	P3
        0.00000000 0.00000000 0.59474000      	#	36     	P4
        0.50000000 0.50000000 0.20756000      	#	37     	P5
        0.50223683 0.53453463 0.58538504      	#	38     	H

